118 119 120 121 122 123 71 72 73 74 75 76 77 78 79 80 81 59 60 61 63 62 64 65 66 67 68 70 69 124 125 126 127 128 129 130 131 132 133 134 135 136 137 138 139 140 141 151 150 149 152 148 147 146 142 143 144 145 158 157 159 156 155 153 154 160 162 168 163 167 166 164 165 201 200 199 198 202 204 203 208 207 206 205 209 210 211 212 213 214 215 216 217 223 224 222 221 220 218 219 193 194 195 196 197 184 185 183 181 179 180 169 171 170 172 175 174 173 108 109 110 111 161 113 112 114 115 116 117 106 107 542 541 543 544 545 548 549 560 561 562 563 564 565 566 567 475 476 477 478 479 480 481 482 483 485 484 536 537 539 538 540 176 177 178 182 187 188 186 227 189 190 192 191 226 225 228 229 230 231 233 232 234 235 236 237 240 239 238 246 247 245 244 243 242 241 248 249 250 251 252 254 253 255 256 257 300 258 259 260 261 262 263 264 266 265 299 298 267 271 268 270 269 272 273 274 275 292 291 293 294 295 296 297 321 320 319 317 318 305 306 304 303 301 302 508 507 506 509 510 511 512 527 513 514 515 516 517 502 503 504 505 307 308 309 310 311 312 313 316 314 315 374 373 322 323 324 325 326 327 328 329 366 342 330 331 332 288 289 290 276 277 278 279 282 281 280 287 286 285 284 283 334 335 333 336 337 338 339 340 341 343 344 345 346 347 348 349 350 351 415 416 414 413 352 353 354 355 357 358 359 360 361 362 363 364 365 367 368 369 370 372 371 396 394 395 375 376 377 378 379 380 393 391 392 390 389 388 387 386 382 383 384 385 409 408 405 406 407 397 398 399 400 404 403 401 402 356 412 411 410 418 417 419 420 421 422 423 424 425 426 427 428 429 430 432 433 434 435 436 437 438 454 439 440 441 442 443 444 445 431 381 447 446 448 449 450 451 501 498 500 499 453 452 461 462 463 460 459 458 457 456 455 3 2 1 4 0 5 6 572 573 571 468 469 470 467 466 465 464 496 497 519 518 520 521 522 523 525 492 491 526 528 529 530 531 489 532 533 488 534 535 487 486 490 493 524 494 495 471 472 473 474 570 569 568 20 19 18 17 8 7 9 10 11 16 15 14 13 12 21 24 25 26 27 28 29 23 22 31 30 32 36 37 38 35 33 34 558 559 557 556 553 554 555 46 45 44 41 40 39 42 43 47 48 49 55 56 58 57 82 83 53 54 52 50 51 84 85 86 87 88 89 90 92 91 93 94 95 96 97 98 99 552 550 551 101 100 102 546 547 103 104 105